NAME : kz9976
COMMENT : 9976 locations in Kazakhstan
COMMENT : Derived from National Imagery and Mapping Agency data
TYPE : TSP
DIMENSION : 20
EDGE_WEIGHT_TYPE : EUC_2D
NODE_COORD_SECTION
1 40533.3333 68966.6667
2 40616.6667 68550.0000
3 40616.6667 68566.6667
4 40633.3333 68433.3333
5 40633.3333 68566.6667
6 40633.3333 68616.6667
7 40666.6667 68533.3333
8 40666.6667 68633.3333
9 40683.3333 68300.0000
10 40683.3333 68400.0000
11 40683.3333 68566.6667
12 40700.0000 68366.6667
13 40716.6667 68250.0000
14 40716.6667 68333.3333
15 40716.6667 68433.3333
16 40716.6667 68650.0000
17 40733.3333 68300.0000
18 40733.3333 68433.3333
19 40750.0000 68416.6667
20 40756.6667 68477.2222
EOF