NAME : kz9976
COMMENT : 9976 locations in Kazakhstan
COMMENT : Derived from National Imagery and Mapping Agency data
TYPE : TSP
DIMENSION : 280
EDGE_WEIGHT_TYPE : EUC_2D
NODE_COORD_SECTION
1 40533.3333 68966.6667
2 40616.6667 68550.0000
3 40616.6667 68566.6667
4 40633.3333 68433.3333
5 40633.3333 68566.6667
6 40633.3333 68616.6667
7 40666.6667 68533.3333
8 40666.6667 68633.3333
9 40683.3333 68300.0000
10 40683.3333 68400.0000
11 40683.3333 68566.6667
12 40700.0000 68366.6667
13 40716.6667 68250.0000
14 40716.6667 68333.3333
15 40716.6667 68433.3333
16 40716.6667 68650.0000
17 40733.3333 68300.0000
18 40733.3333 68433.3333
19 40750.0000 68416.6667
20 40756.6667 68477.2222
21 40760.2778 68166.3889
22 40761.9444 68426.9444
23 40763.6111 68303.0556
24 40767.5000 68538.6111
25 40775.2778 68327.2222
26 40780.8333 68406.1111
27 40783.3333 68133.3333
28 40783.3333 68366.6667
29 40785.2778 68426.1111
30 40797.2222 68443.0556
31 40798.0556 68357.5000
32 40800.0000 68216.6667
33 40804.1667 68350.0000
34 40805.8333 68554.1667
35 40807.2222 68537.2222
36 40816.3889 68175.0000
37 40816.6667 68150.0000
38 40816.6667 68550.0000
39 40819.4444 68549.7222
40 40820.8333 68266.1111
41 40831.3889 68376.9444
42 40846.3889 68506.6667
43 40846.9444 68064.4444
44 40850.0000 68483.3333
45 40850.0000 68533.3333
46 40861.1111 68185.5556
47 40866.6667 68350.0000
48 40870.8333 68545.2778
49 40897.7778 68493.6111
50 40899.1667 68543.3333
51 40899.4444 68361.1111
52 40900.0000 68550.0000
53 40916.6667 68383.3333
54 40916.6667 68433.3333
55 40933.3333 68483.3333
56 40933.8889 68540.5556
57 40934.7222 68492.5000
58 40944.7222 68354.4444
59 40947.2222 68165.8333
60 40950.0000 68416.6667
61 40950.0000 68733.3333
62 40954.1667 68507.2222
63 40954.7222 68294.4444
64 40966.6667 68283.3333
65 40969.1667 68672.7778
66 40972.5000 68378.0556
67 40973.0556 68698.3333
68 40973.6111 68725.8333
69 40975.0000 68394.7222
70 40981.3889 68682.2222
71 40983.3333 67866.6667
72 40991.1111 68270.0000
73 41000.0000 68633.3333
74 41006.6667 68215.2778
75 41033.3333 68166.6667
76 41033.3333 68533.3333
77 41033.3333 68616.6667
78 41033.3333 68633.3333
79 41041.1111 68136.9444
80 41050.0000 65283.3333
81 41050.0000 68650.0000
82 41053.8889 68655.8333
83 41072.5000 68673.8889
84 41077.7778 68678.8889
85 41090.2778 68698.8889
86 41100.0000 68216.6667
87 41103.6111 68707.5000
88 41116.6667 65883.3333
89 41128.6111 68733.3333
90 41145.2778 68340.2778
91 41150.0000 68750.0000
92 41152.5000 67013.0556
93 41166.6667 68050.0000
94 41166.6667 68800.0000
95 41173.6111 68791.6667
96 41192.5000 67881.1111
97 41197.5000 68802.7778
98 41200.0000 67966.6667
99 41209.7222 68444.7222
100 41216.6667 67916.6667
101 41216.6667 68197.7778
102 41216.6667 68833.3333
103 41227.7778 68617.7778
104 41233.3333 68833.3333
105 41234.7222 68852.7778
106 41243.8889 67883.8889
107 41244.7222 68832.5000
108 41247.7778 68645.2778
109 41250.0000 68633.3333
110 41250.0000 68850.0000
111 41254.7222 67969.1667
112 41256.1111 68842.7778
113 41260.2778 68880.2778
114 41263.0556 69024.7222
115 41266.6667 68650.0000
116 41268.6111 68856.1111
117 41269.1667 67914.4444
118 41278.8889 68866.9444
119 41283.3333 68866.6667
120 41285.5556 68913.3333
121 41286.6667 68873.0556
122 41289.4444 68667.2222
123 41290.5556 68075.5556
124 41300.0000 68700.0000
125 41300.0000 68883.3333
126 41305.0000 68682.5000
127 41310.5556 68932.5000
128 41312.7778 68709.1667
129 41316.3889 67966.1111
130 41316.6667 68683.3333
131 41316.6667 68700.0000
132 41316.6667 68833.3333
133 41316.6667 68916.6667
134 41316.6667 72500.0000
135 41320.0000 68911.1111
136 41322.7778 68896.1111
137 41325.8333 68725.0000
138 41330.5556 66922.5000
139 41333.3333 65516.6667
140 41333.3333 68750.0000
141 41336.3889 68122.7778
142 41341.1111 68710.5556
143 41345.8333 69031.9444
144 41346.1111 67346.1111
145 41350.0000 68766.6667
146 41350.0000 68933.3333
147 41350.0000 68983.3333
148 41351.3889 68944.4444
149 41352.7778 68964.4444
150 41356.9444 68925.0000
151 41360.2778 68128.0556
152 41365.8333 68108.0556
153 41366.6667 68033.3333
154 41366.6667 68050.0000
155 41366.6667 68750.0000
156 41366.6667 68833.3333
157 41366.6667 68866.6667
158 41368.6111 68846.1111
159 41371.6667 68989.4444
160 41373.8889 68858.8889
161 41376.3889 68795.8333
162 41376.3889 69060.5556
163 41378.8889 68922.5000
164 41382.2222 68823.3333
165 41383.3333 68800.0000
166 41383.3333 70150.0000
167 41384.4444 69059.1667
168 41385.2778 68160.5556
169 41390.2778 68889.4444
170 41393.6111 68004.1667
171 41394.7222 68166.9444
172 41394.7222 68857.7778
173 41394.7222 68975.8333
174 41399.4444 67998.3333
175 41400.0000 68816.6667
176 41400.0000 68900.0000
177 41400.0000 69066.6667
178 41400.0000 69116.6667
179 41406.3889 68784.1667
180 41410.0000 69015.5556
181 41412.5000 68881.6667
182 41412.7778 68917.7778
183 41412.7778 69127.7778
184 41416.6667 68050.0000
185 41416.6667 68100.0000
186 41417.5000 68959.1667
187 41418.8889 69311.1111
188 41421.1111 68798.8889
189 41422.7778 68153.3333
190 41425.8333 69119.7222
191 41428.6111 68990.0000
192 41433.3333 65633.3333
193 41436.6667 68255.0000
194 41438.0556 68129.4444
195 41438.6111 69368.0556
196 41447.5000 69034.4444
197 41450.0000 69016.6667
198 41450.0000 69166.6667
199 41453.3333 68251.3889
200 41456.6667 69278.6111
201 41466.3889 69433.6111
202 41466.6667 69066.6667
203 41466.6667 69116.6667
204 41467.2222 69323.6111
205 41468.0556 69237.7778
206 41470.0000 69128.0556
207 41470.8333 69262.7778
208 41471.6667 69150.5556
209 41471.9444 69096.9444
210 41473.6111 68024.7222
211 41474.1667 69361.6667
212 41483.3333 68750.0000
213 41483.3333 69150.0000
214 41489.7222 68090.8333
215 41491.9444 68031.6667
216 41494.4444 69140.0000
217 41497.5000 68552.2222
218 41497.5000 69267.7778
219 41502.7778 68773.3333
220 41511.6667 69353.6111
221 41513.8889 69270.5556
222 41516.6667 68733.3333
223 41516.6667 68750.0000
224 41516.6667 75850.0000
225 41517.2222 69038.3333
226 41520.0000 68307.5000
227 41533.3333 69216.6667
228 41539.1667 69281.3889
229 41548.3333 66814.1667
230 41550.0000 68033.3333
231 41550.0000 69250.0000
232 41553.8889 68902.7778
233 41554.4444 69359.1667
234 41566.1111 69088.8889
235 41568.8889 69318.3333
236 41573.3333 68840.2778
237 41583.3333 65450.0000
238 41595.2778 68329.1667
239 41599.1667 67316.9444
240 41603.8889 69268.6111
241 41606.6667 69343.3333
242 41610.8333 69527.2222
243 41616.1111 68917.5000
244 41628.0556 69531.3889
245 41629.1667 69186.3889
246 41634.7222 68341.3889
247 41636.1111 69370.2778
248 41636.9444 68048.8889
249 41637.7778 68580.5556
250 41650.0000 69533.3333
251 41655.8333 69160.2778
252 41656.9444 69104.7222
253 41662.5000 69378.0556
254 41663.0556 67974.7222
255 41666.6667 69383.3333
256 41676.9444 68820.8333
257 41681.1111 69492.2222
258 41681.9444 69596.9444
259 41683.3333 69533.3333
260 41683.3333 69616.6667
261 41684.4444 69511.1111
262 41686.9444 67913.6111
263 41689.7222 69391.6667
264 41691.9444 69294.7222
265 41700.0000 69250.0000
266 41700.0000 69483.3333
267 41700.2778 68412.7778
268 41701.3889 69260.0000
269 41707.2222 66928.8889
270 41713.0556 69006.6667
271 41714.1667 69325.5556
272 41716.3889 69015.2778
273 41733.3333 69150.0000
274 41733.3333 69547.5000
275 41735.8333 69644.7222
276 41748.6111 69706.6667
277 41749.1667 69672.2222
278 41750.0000 68050.0000
279 41753.3333 69193.6111
280 41755.5556 68263.8889
EOF