NAME : kz9976
COMMENT : 9976 locations in Kazakhstan
COMMENT : Derived from National Imagery and Mapping Agency data
TYPE : TSP
DIMENSION : 80
EDGE_WEIGHT_TYPE : EUC_2D
NODE_COORD_SECTION
1 40533.3333 68966.6667
2 40616.6667 68550.0000
3 40616.6667 68566.6667
4 40633.3333 68433.3333
5 40633.3333 68566.6667
6 40633.3333 68616.6667
7 40666.6667 68533.3333
8 40666.6667 68633.3333
9 40683.3333 68300.0000
10 40683.3333 68400.0000
11 40683.3333 68566.6667
12 40700.0000 68366.6667
13 40716.6667 68250.0000
14 40716.6667 68333.3333
15 40716.6667 68433.3333
16 40716.6667 68650.0000
17 40733.3333 68300.0000
18 40733.3333 68433.3333
19 40750.0000 68416.6667
20 40756.6667 68477.2222
21 40760.2778 68166.3889
22 40761.9444 68426.9444
23 40763.6111 68303.0556
24 40767.5000 68538.6111
25 40775.2778 68327.2222
26 40780.8333 68406.1111
27 40783.3333 68133.3333
28 40783.3333 68366.6667
29 40785.2778 68426.1111
30 40797.2222 68443.0556
31 40798.0556 68357.5000
32 40800.0000 68216.6667
33 40804.1667 68350.0000
34 40805.8333 68554.1667
35 40807.2222 68537.2222
36 40816.3889 68175.0000
37 40816.6667 68150.0000
38 40816.6667 68550.0000
39 40819.4444 68549.7222
40 40820.8333 68266.1111
41 40831.3889 68376.9444
42 40846.3889 68506.6667
43 40846.9444 68064.4444
44 40850.0000 68483.3333
45 40850.0000 68533.3333
46 40861.1111 68185.5556
47 40866.6667 68350.0000
48 40870.8333 68545.2778
49 40897.7778 68493.6111
50 40899.1667 68543.3333
51 40899.4444 68361.1111
52 40900.0000 68550.0000
53 40916.6667 68383.3333
54 40916.6667 68433.3333
55 40933.3333 68483.3333
56 40933.8889 68540.5556
57 40934.7222 68492.5000
58 40944.7222 68354.4444
59 40947.2222 68165.8333
60 40950.0000 68416.6667
61 40950.0000 68733.3333
62 40954.1667 68507.2222
63 40954.7222 68294.4444
64 40966.6667 68283.3333
65 40969.1667 68672.7778
66 40972.5000 68378.0556
67 40973.0556 68698.3333
68 40973.6111 68725.8333
69 40975.0000 68394.7222
70 40981.3889 68682.2222
71 40983.3333 67866.6667
72 40991.1111 68270.0000
73 41000.0000 68633.3333
74 41006.6667 68215.2778
75 41033.3333 68166.6667
76 41033.3333 68533.3333
77 41033.3333 68616.6667
78 41033.3333 68633.3333
79 41041.1111 68136.9444
80 41050.0000 65283.3333
EOF