NAME: mona-lisa100K
COMMENT: TSP art (Bosch)
TYPE: TSP
DIMENSION: 280
EDGE_WEIGHT_TYPE: EUC_2D
NODE_COORD_SECTION
1 14991 8390
2 13616 12541
3 961 10768
4 19110 7120
5 19638 2401
6 18718 10500
7 13355 2977
8 8786 6099
9 6242 12200
10 22 5807
11 17490 5792
12 14198 14154
13 13578 10828
14 2497 7141
15 8189 16845
16 945 1313
17 341 7024
18 11127 12824
19 5410 1181
20 1056 706
21 4503 2426
22 1071 1320
23 2578 14340
24 3361 19726
25 5340 3454
26 12011 13263
27 18204 7961
28 11661 8063
29 5498 5878
30 6501 8801
31 17100 12529
32 5866 12946
33 8443 6746
34 2398 9424
35 7461 5479
36 19969 1693
37 6260 12818
38 7271 5219
39 18252 165
40 2097 11381
41 5179 11055
42 16753 943
43 11810 14584
44 16528 1940
45 4035 6398
46 6772 16688
47 12701 7660
48 18456 6625
49 6918 8193
50 13459 7782
51 17315 15086
52 3326 8600
53 10673 7704
54 13845 14902
55 18443 10009
56 14798 5130
57 12834 15070
58 7157 450
59 11987 7618
60 5544 8385
61 4172 2874
62 15162 1823
63 14956 5794
64 18762 7238
65 9579 13500
66 3683 10540
67 7989 593
68 3172 17190
69 14039 7386
70 17375 189
71 10722 20
72 13700 17469
73 8692 9777
74 19141 4285
75 6382 6534
76 4817 5621
77 331 1691
78 7550 5717
79 5527 9697
80 100 4522
81 4739 16247
82 5420 11871
83 19569 3722
84 5828 12450
85 16127 18084
86 9218 8459
87 15799 846
88 10614 17286
89 12894 7178
90 12156 7414
91 15069 6948
92 12447 13744
93 5818 1938
94 734 6982
95 13647 15932
96 121 2113
97 17240 269
98 8254 3828
99 15859 1199
100 1753 5655
101 12794 11725
102 4460 179
103 14323 14226
104 14265 7398
105 12885 15913
106 12723 13509
107 17804 3408
108 14934 19530
109 13067 3515
110 4508 14075
111 11729 14662
112 2290 1065
113 3727 4222
114 6969 4320
115 14168 8252
116 4489 11951
117 17216 1479
118 10464 6284
119 11815 16152
120 11594 16912
121 17756 1067
122 692 1411
123 7617 11908
124 14392 10884
125 15314 10590
126 5645 4103
127 1202 7508
128 15362 2035
129 12689 8628
130 3663 1005
131 19375 607
132 14535 1638
133 11138 18094
134 6080 13998
135 17156 2082
136 74 2189
137 8417 7204
138 14483 9467
139 12843 284
140 8558 16828
141 13521 10635
142 3687 2827
143 18187 2361
144 2038 3426
145 10076 6262
146 12941 7069
147 12431 1735
148 11025 8794
149 1149 17767
150 4056 6595
151 18522 12009
152 14893 6412
153 4024 7231
154 11585 18
155 19677 7608
156 19691 7656
157 12288 4600
158 1301 5131
159 14489 7419
160 11060 16521
161 18633 5009
162 2130 1207
163 9278 7573
164 4374 9796
165 4313 9642
166 18332 6929
167 18122 3833
168 19538 9116
169 15470 1016
170 16314 11986
171 7812 17779
172 12916 16096
173 14664 7219
174 18983 1303
175 1388 15098
176 16598 2419
177 16336 9484
178 11720 19518
179 16759 534
180 8289 5865
181 18519 6931
182 636 1159
183 8529 12064
184 17456 712
185 7281 4795
186 2273 6693
187 2083 7692
188 13928 4748
189 1107 11656
190 941 9458
191 18218 3007
192 15212 6420
193 19106 3151
194 7667 6224
195 3115 4383
196 14587 2971
197 10423 17304
198 3332 10471
199 12819 2663
200 14249 13614
201 409 16114
202 12918 9721
203 6706 530
204 1702 7010
205 16694 3843
206 19715 10003
207 5114 10266
208 6679 17303
209 6742 9981
210 3421 5131
211 19047 7912
212 8821 19429
213 12015 10067
214 4157 16683
215 18590 2535
216 12864 6642
217 17534 5918
218 13074 14900
219 12988 3789
220 12886 1914
221 3737 10135
222 6275 5945
223 18859 3199
224 10413 8326
225 14276 5442
226 1601 454
227 16036 9148
228 8350 16404
229 5384 2063
230 11528 417
231 1327 15676
232 5971 3542
233 13391 14307
234 14610 13217
235 14347 9776
236 8895 17575
237 5670 9643
238 15072 6526
239 16442 1202
240 1002 12115
241 13841 9373
242 204 7252
243 10927 17018
244 6764 15822
245 5724 8531
246 18258 2525
247 537 12488
248 10840 7913
249 748 1489
250 2904 1060
251 13557 9200
252 13670 10792
253 18985 4059
254 916 13353
255 15339 10989
256 11009 17126
257 16225 12932
258 6988 9732
259 552 10148
260 7261 6478
261 17415 18478
262 4831 10361
263 4583 19647
264 17207 19355
265 9794 10824
266 3300 6512
267 13282 7159
268 19428 768
269 1373 7994
270 17582 453
271 7641 16976
272 13159 5092
273 4731 5225
274 19104 2970
275 17937 9846
276 12836 14338
277 13820 2521
278 5182 9163
279 13717 7621
280 706 12074
EOF