NAME: mona-lisa100K
COMMENT: TSP art (Bosch)
TYPE: TSP
DIMENSION: 80
EDGE_WEIGHT_TYPE: EUC_2D
NODE_COORD_SECTION
1 14991 8390
2 13616 12541
3 961 10768
4 19110 7120
5 19638 2401
6 18718 10500
7 13355 2977
8 8786 6099
9 6242 12200
10 22 5807
11 17490 5792
12 14198 14154
13 13578 10828
14 2497 7141
15 8189 16845
16 945 1313
17 341 7024
18 11127 12824
19 5410 1181
20 1056 706
21 4503 2426
22 1071 1320
23 2578 14340
24 3361 19726
25 5340 3454
26 12011 13263
27 18204 7961
28 11661 8063
29 5498 5878
30 6501 8801
31 17100 12529
32 5866 12946
33 8443 6746
34 2398 9424
35 7461 5479
36 19969 1693
37 6260 12818
38 7271 5219
39 18252 165
40 2097 11381
41 5179 11055
42 16753 943
43 11810 14584
44 16528 1940
45 4035 6398
46 6772 16688
47 12701 7660
48 18456 6625
49 6918 8193
50 13459 7782
51 17315 15086
52 3326 8600
53 10673 7704
54 13845 14902
55 18443 10009
56 14798 5130
57 12834 15070
58 7157 450
59 11987 7618
60 5544 8385
61 4172 2874
62 15162 1823
63 14956 5794
64 18762 7238
65 9579 13500
66 3683 10540
67 7989 593
68 3172 17190
69 14039 7386
70 17375 189
71 10722 20
72 13700 17469
73 8692 9777
74 19141 4285
75 6382 6534
76 4817 5621
77 331 1691
78 7550 5717
79 5527 9697
80 100 4522
EOF