NAME : xql662
COMMENT : Bonn VLSI data set with 662 points
COMMENT : Uni Bonn, Research Institute for Discrete Math
COMMENT : Contributed by Andre Rohe
TYPE : TSP
DIMENSION : 280
EDGE_WEIGHT_TYPE : EUC_2D
NODE_COORD_SECTION
1 0 20
2 0 39
3 0 45
4 0 58
5 0 64
6 0 77
7 2 11
8 2 16
9 2 25
10 2 31
11 2 32
12 2 33
13 2 35
14 2 38
15 2 39
16 2 43
17 2 44
18 2 47
19 2 48
20 2 49
21 2 54
22 2 56
23 2 59
24 2 60
25 2 64
26 2 65
27 2 68
28 2 69
29 2 70
30 2 75
31 2 77
32 2 82
33 2 9
34 3 41
35 3 62
36 5 101
37 5 36
38 5 97
39 9 101
40 9 94
41 9 97
42 10 15
43 10 24
44 10 35
45 10 79
46 10 95
47 10 99
48 11 15
49 11 24
50 11 35
51 11 5
52 11 79
53 15 100
54 15 36
55 15 96
56 16 25
57 17 32
58 17 33
59 17 38
60 17 44
61 17 47
62 17 54
63 17 56
64 17 59
65 17 65
66 17 68
67 17 75
68 17 77
69 18 42
70 18 48
71 18 63
72 18 69
73 25 48
74 25 49
75 25 59
76 25 60
77 25 62
78 25 74
79 25 75
80 25 76
81 25 77
82 26 63
83 28 103
84 28 14
85 28 18
86 28 23
87 28 8
88 31 15
89 32 93
90 34 27
91 34 93
92 35 100
93 35 5
94 38 103
95 38 14
96 38 18
97 38 23
98 38 8
99 40 48
100 40 74
101 40 76
102 41 47
103 41 58
104 41 64
105 41 77
106 48 103
107 48 19
108 48 35
109 48 36
110 48 39
111 48 40
112 48 42
113 48 46
114 48 48
115 48 50
116 48 51
117 48 54
118 48 55
119 48 59
120 48 60
121 48 63
122 48 64
123 48 65
124 48 70
125 48 72
126 48 75
127 48 77
128 48 90
129 48 92
130 49 57
131 51 100
132 51 24
133 51 27
134 51 31
135 51 45
136 51 47
137 51 49
138 51 81
139 51 85
140 51 95
141 51 98
142 55 42
143 56 42
144 56 46
145 56 48
146 57 22
147 57 25
148 57 42
149 57 46
150 57 48
151 57 79
152 57 86
153 57 9
154 57 94
155 57 97
156 58 42
157 58 82
158 61 0
159 61 100
160 61 109
161 61 45
162 61 47
163 61 49
164 61 85
165 61 95
166 61 98
167 63 103
168 63 35
169 63 39
170 63 51
171 63 54
172 63 60
173 63 63
174 63 70
175 63 72
176 63 75
177 63 77
178 64 19
179 64 43
180 64 44
181 64 58
182 64 64
183 71 100
184 71 102
185 71 14
186 71 30
187 71 34
188 71 36
189 71 38
190 71 42
191 71 44
192 71 45
193 71 53
194 71 55
195 71 59
196 71 60
197 71 63
198 71 64
199 71 68
200 71 69
201 71 70
202 71 73
203 72 0
204 74 11
205 74 36
206 74 41
207 74 44
208 74 48
209 74 6
210 74 73
211 74 75
212 74 79
213 74 84
214 74 9
215 74 90
216 74 94
217 77 37
218 77 76
219 78 34
220 78 37
221 78 42
222 78 45
223 78 87
224 78 90
225 78 94
226 79 34
227 79 37
228 79 42
229 79 45
230 79 72
231 79 88
232 79 92
233 80 20
234 80 34
235 80 37
236 80 42
237 80 45
238 80 49
239 80 5
240 80 72
241 80 8
242 80 96
243 81 37
244 81 45
245 84 11
246 84 48
247 84 6
248 84 73
249 84 75
250 84 79
251 84 84
252 84 89
253 84 9
254 84 93
255 86 14
256 86 59
257 86 63
258 86 69
259 87 30
260 87 39
261 87 40
262 87 46
263 87 47
264 87 70
265 90 0
266 94 101
267 94 13
268 94 16
269 94 18
270 94 24
271 94 31
272 94 34
273 94 36
274 94 38
275 94 39
276 94 41
277 94 43
278 94 45
279 94 46
280 94 47
EOF